T = 15;
n = 38;
m = 43;
R = 12;
root = [1, 2, 3, 4, 5, 6, 7, 8, 9, 10, 21, 23];
thickness = [15, 15, 15, 15, 15, 15, 15, 15, 15, 15, 14, 14, 14, 14, 14, 14, 13, 13, 13, 13, 13, 13, 13, 13, 12, 12, 12, 11, 11, 11, 11, 10, 10, 10, 9, 9, 9, 9];
edges = [(1, 11), (1, 17), (2, 12), (2, 18), (3, 18), (3, 13), (4, 17), (4, 12), (4, 19), (5, 20), (5, 13), (6, 22), (6, 14), (7, 15), (7, 24), (7, 22), (7, 14), (8, 24), (8, 16), (9, 14), (10, 15), (12, 25), (14, 26), (15, 22), (17, 28), (17, 25), (18, 25), (19, 28), (20, 27), (21, 29), (22, 30), (23, 31), (23, 29), (24, 30), (25, 32), (26, 33), (27, 34), (28, 35), (28, 33), (29, 36), (30, 33), (30, 37), (31, 38), (31, 36)];
counts = [|3, 6, 3, 3|4, 5, 4, 2|3, 5, 3, 4|4, 4, 4, 3|3, 4, 3, 5|5, 3, 5, 2|4, 3, 4, 4|3, 3, 3, 6|5, 2, 5, 3|4, 2, 4, 5|5, 1, 5, 2|4, 1, 4, 4|];
